c xor clauses: 3
p cnf 10 102
-5 -6 0
-5 -1 0
-5 -4 0
-5 -10 0
-6 -1 0
-6 -4 0
-6 -10 0
-1 -4 0
-1 -10 0
-4 -10 0
-8 -7 0
-8 -2 0
-8 -9 0
-8 -3 0
-7 -2 0
-7 -9 0
-7 -3 0
-2 -9 0
-2 -3 0
-9 -3 0
5 7 10 4 3 0
8 2 1 9 6 0
5 2 3 10 4 0
8 6 1 9 7 0
5 7 10 -4 -3 0
5 7 -10 4 -3 0
5 7 -10 -4 3 0
5 7 -10 -4 -3 0
5 -7 10 4 -3 0
5 -7 10 -4 3 0
5 -7 10 -4 -3 0
5 -7 -10 4 3 0
5 -7 -10 4 -3 0
5 -7 -10 -4 3 0
5 -7 -10 -4 -3 0
-5 7 10 4 -3 0
-5 7 10 -4 3 0
-5 7 10 -4 -3 0
-5 7 -10 4 3 0
-5 7 -10 4 -3 0
-5 7 -10 -4 3 0
-5 7 -10 -4 -3 0
-5 -7 10 4 3 0
-5 -7 10 4 -3 0
-5 -7 10 -4 3 0
-5 -7 10 -4 -3 0
-5 -7 -10 4 3 0
-5 -7 -10 4 -3 0
-5 -7 -10 -4 3 0
-5 -7 -10 -4 -3 0
8 2 1 -9 -6 0
8 2 -1 9 -6 0
8 2 -1 -9 6 0
8 2 -1 -9 -6 0
8 -2 1 9 -6 0
8 -2 1 -9 6 0
8 -2 1 -9 -6 0
8 -2 -1 9 6 0
8 -2 -1 9 -6 0
8 -2 -1 -9 6 0
8 -2 -1 -9 -6 0
-8 2 1 9 -6 0
-8 2 1 -9 6 0
-8 2 1 -9 -6 0
-8 2 -1 9 6 0
-8 2 -1 9 -6 0
-8 2 -1 -9 6 0
-8 2 -1 -9 -6 0
-8 -2 1 9 6 0
-8 -2 1 9 -6 0
-8 -2 1 -9 6 0
-8 -2 1 -9 -6 0
-8 -2 -1 9 6 0
-8 -2 -1 9 -6 0
-8 -2 -1 -9 6 0
-8 -2 -1 -9 -6 0
5 2 3 -10 -4 0
5 2 -3 10 -4 0
5 2 -3 -10 4 0
5 2 -3 -10 -4 0
5 -2 3 10 -4 0
5 -2 3 -10 4 0
5 -2 3 -10 -4 0
5 -2 -3 10 4 0
5 -2 -3 10 -4 0
5 -2 -3 -10 4 0
5 -2 -3 -10 -4 0
-5 2 3 10 -4 0
-5 2 3 -10 4 0
-5 2 3 -10 -4 0
-5 2 -3 10 4 0
-5 2 -3 10 -4 0
-5 2 -3 -10 4 0
-5 2 -3 -10 -4 0
-5 -2 3 10 4 0
-5 -2 3 10 -4 0
-5 -2 3 -10 4 0
-5 -2 3 -10 -4 0
-5 -2 -3 10 4 0
-5 -2 -3 10 -4 0
-5 -2 -3 -10 4 0
-5 -2 -3 -10 -4 0
